solution status: optimal solution found
objective value:                     229217.434316051
d11(0,0)                                            1 	(obj:0)
d11(1,1)                                            1 	(obj:0)
d11(1,2)                                            1 	(obj:0)
d11(2,3)                                            1 	(obj:0)
d11(2,5)                                            1 	(obj:0)
d11(3,7)                                            1 	(obj:0)
d11(3,9)                                            1 	(obj:0)
d11(3,10)                                           1 	(obj:0)
d11(3,11)                                           1 	(obj:0)
d11(3,13)                                           1 	(obj:0)
d11(3,14)                                           1 	(obj:0)
d11(4,15)                                           1 	(obj:0)
d11(4,17)                                           1 	(obj:0)
d11(4,19)                                           1 	(obj:0)
d11(4,23)                                           1 	(obj:0)
d11(4,25)                                           1 	(obj:0)
d11(4,27)                                           1 	(obj:0)
d11(4,29)                                           1 	(obj:0)
d11(5,31)                                           1 	(obj:0)
d11(5,32)                                           1 	(obj:0)
d11(5,33)                                           1 	(obj:0)
d11(5,34)                                           1 	(obj:0)
d11(5,35)                                           1 	(obj:0)
d11(5,36)                           0.999999999999998 	(obj:0)
d11(5,37)                                           1 	(obj:0)
d11(5,38)                                           1 	(obj:0)
d11(5,39)                                           1 	(obj:0)
d11(5,40)                                           1 	(obj:0)
d11(5,41)                                           1 	(obj:0)
d11(5,42)                                           1 	(obj:0)
d11(5,43)                                           1 	(obj:0)
d11(5,44)                                           1 	(obj:0)
d11(5,45)                                           1 	(obj:0)
d11(5,46)                                           1 	(obj:0)
d11(5,47)                                           1 	(obj:0)
d11(5,48)                                           1 	(obj:0)
d11(5,49)                                           1 	(obj:0)
d11(5,51)                                           1 	(obj:0)
d11(5,52)                                           1 	(obj:0)
d11(5,53)                                           1 	(obj:0)
d11(5,55)                                           1 	(obj:0)
d11(5,56)                                           1 	(obj:0)
d11(5,57)                                           1 	(obj:0)
d11(5,58)                                           1 	(obj:0)
d11(5,59)                                           1 	(obj:0)
d11(5,60)                                           1 	(obj:0)
d11(5,61)                                           1 	(obj:0)
d11(5,62)                                           1 	(obj:0)
d12(4,16)                                           1 	(obj:0)
d12(4,18)                                           1 	(obj:0)
d12(4,20)                                           1 	(obj:0)
d12(4,22)                                           1 	(obj:0)
d12(4,24)                                           1 	(obj:0)
d12(4,26)                                           1 	(obj:0)
d12(4,28)                                           1 	(obj:0)
d12(4,30)                                           1 	(obj:0)
d21(4,15)                                           1 	(obj:0)
d21(5,31)                                           1 	(obj:0)
d21(5,32)                                           1 	(obj:0)
d21(5,33)                                           1 	(obj:0)
d21(5,34)                                           1 	(obj:0)
d21(5,35)                                           1 	(obj:0)
d21(5,37)                                           1 	(obj:0)
d21(5,39)                                           1 	(obj:0)
d21(5,40)                                           1 	(obj:0)
d21(5,41)                                           1 	(obj:0)
d21(5,43)                                           1 	(obj:0)
d21(5,47)                                           1 	(obj:0)
d21(5,48)                                           1 	(obj:0)
d21(5,49)                                           1 	(obj:0)
STE(1,1)                             7611.74984888891 	(obj:0)
STE(0,0)                                        14175 	(obj:0)
STE(1,2)                             9269.99974777776 	(obj:0)
STE(2,3)                             4819.49994999846 	(obj:0)
STE(2,4)                             6477.74984888891 	(obj:0)
STE(2,5)                              6477.7498488889 	(obj:0)
STE(2,6)                             8135.99974777776 	(obj:0)
STE(3,7)                             2027.25005110961 	(obj:0)
STE(3,8)                             3685.49994999846 	(obj:0)
STE(3,9)                             3685.49995000006 	(obj:0)
STE(3,10)                            5343.74984888888 	(obj:0)
STE(3,11)                            3685.49995000006 	(obj:0)
STE(3,12)                             5343.7498488889 	(obj:0)
STE(3,13)                            5343.74984888891 	(obj:0)
STE(3,14)                            7001.99974777773 	(obj:0)
STE(4,15)                            893.250051109613 	(obj:0)
STE(4,16)                            2209.46413698612 	(obj:0)
STE(4,17)                            2551.49994999846 	(obj:0)
STE(4,18)                            3867.71403587496 	(obj:0)
STE(4,19)                            2551.49995000006 	(obj:0)
STE(4,20)                            3867.71403587657 	(obj:0)
STE(4,21)                            4209.74984888888 	(obj:0)
STE(4,22)                            5525.96393476538 	(obj:0)
STE(4,23)                             2551.4999500001 	(obj:0)
STE(4,24)                            3867.71403587656 	(obj:0)
STE(4,25)                            4209.74984888894 	(obj:0)
STE(4,26)                            5525.96393476541 	(obj:0)
STE(4,27)                            4209.74984888891 	(obj:0)
STE(4,28)                            5525.96393476541 	(obj:0)
STE(4,29)                            5867.99974777777 	(obj:0)
STE(4,30)                            7184.21383365423 	(obj:0)
STE(5,31)                            -1898.9998477793 	(obj:0)
STE(5,32)                           -240.749948890479 	(obj:0)
STE(5,33)                            -582.78576190279 	(obj:0)
STE(5,34)                            1075.46413698612 	(obj:0)
STE(5,35)                           -240.749948890451 	(obj:0)
STE(5,36)                                  1417.49995 	(obj:0)
STE(5,37)                            1075.46413698605 	(obj:0)
STE(5,38)                            2733.71403587496 	(obj:0)
STE(5,39)                           -240.749948888849 	(obj:0)
STE(5,40)                            1417.49995000006 	(obj:0)
STE(5,41)                            1075.46413698766 	(obj:0)
STE(5,42)                            2733.71403587657 	(obj:0)
STE(5,43)                            1417.49994999997 	(obj:0)
STE(5,44)                            3075.74984888888 	(obj:0)
STE(5,45)                            2733.71403587647 	(obj:0)
STE(5,46)                            4391.96393476538 	(obj:0)
STE(5,47)                           -240.749948888811 	(obj:0)
STE(5,48)                            1417.49994999997 	(obj:0)
STE(5,49)                            1075.46413698765 	(obj:0)
STE(5,50)                            2733.71403587656 	(obj:0)
STE(5,51)                            1417.49995000004 	(obj:0)
STE(5,52)                            3075.74984888894 	(obj:0)
STE(5,53)                             2733.7140358765 	(obj:0)
STE(5,54)                            4391.96393476541 	(obj:0)
STE(5,55)                                  1417.49995 	(obj:0)
STE(5,56)                            3075.74984888891 	(obj:0)
STE(5,57)                            2733.71403587651 	(obj:0)
STE(5,58)                            4391.96393476541 	(obj:0)
STE(5,59)                            3075.74984888886 	(obj:0)
STE(5,60)                            4733.99974777777 	(obj:0)
STE(5,61)                            4391.96393476532 	(obj:0)
STE(5,62)                            6050.21383365423 	(obj:0)
y1(5,39)                             1492.42490900002 	(obj:0)
y1(5,41)                             1492.42490900002 	(obj:0)
y1(5,43)                             1492.42490900002 	(obj:0)
y1(5,45)                             1492.42490900002 	(obj:0)
y1(5,47)                             1492.42490900002 	(obj:0)
y1(5,49)                             1492.42490900002 	(obj:0)
y1(5,51)                             1492.42490900002 	(obj:0)
y1(5,53)                             1492.42490900002 	(obj:0)
y1(5,55)                             1492.42490900002 	(obj:0)
y1(5,57)                             1492.42490900002 	(obj:0)
y1(5,59)                             1492.42490900002 	(obj:0)
y1(5,61)                             1492.42490900002 	(obj:0)
AVE(1)                                   3216.9117036 	(obj:0)
AVE(2)                                   3366.1541945 	(obj:0)
AVE(3)                                   3515.3966854 	(obj:0)
WB(4)                                3515.39406545826 	(obj:0)
AVE(4)                               3515.39406545826 	(obj:0)
AVE(5)                               3167.15385943327 	(obj:0)
WG(1)                                    3216.9117036 	(obj:10)
WG(2)                                    3366.1541945 	(obj:10)
WG(3)                                    3515.3966854 	(obj:10)
WG(5)                                3167.15385943327 	(obj:10)
BG(1)                                4442.54429231839 	(obj:10)
BG(2)                                830.138304481063 	(obj:10)
BG(3)                                680.895813579591 	(obj:10)
BG(4)                                2673.40993877551 	(obj:10)
BG(5)                                1029.13863954632 	(obj:10)
y1(1,1)                              4886.32513599998 	(obj:0)
y1(1,2)                              3393.90022700002 	(obj:0)
y1(2,3)                               1492.4249090014 	(obj:0)
y1(2,5)                              1492.42490899997 	(obj:0)
y1(3,7)                              1492.42490899996 	(obj:0)
y1(3,9)                              1492.42490899996 	(obj:0)
y1(3,11)                             1492.42490899996 	(obj:0)
y1(3,13)                             1492.42490899996 	(obj:0)
y1(5,31)                             1492.42490900002 	(obj:0)
y1(5,33)                             1492.42490900002 	(obj:0)
y1(5,35)                             1492.42490900002 	(obj:0)
y1(5,36)                         -1.3873795978725e-009 	(obj:0)
y1(5,37)                             1492.42490900002 	(obj:0)
y2(4,16)                             1385.48851144895 	(obj:0)
y2(4,18)                             1385.48851144895 	(obj:0)
y2(4,20)                             1385.48851144895 	(obj:0)
y2(4,22)                             1385.48851144895 	(obj:0)
y2(4,24)                             1385.48851144895 	(obj:0)
y2(4,26)                             1385.48851144895 	(obj:0)
y2(4,28)                             1385.48851144895 	(obj:0)
y2(4,30)                             1385.48851144895 	(obj:0)
